results/res_prop_muc/res_Cimatti_mathsat_cores/QF_UF/NEQ016_size5.smt.smt2.out

real	0m0.298s
user	0m0.213s
sys	0m0.032s
