results/res_prop_muc/res_Cimatti_mathsat_cores/QF_UF/NEQ016_size5.smt.smt2.res
unsat
( _c1
  _c10
  _c100
  _c101
  _c103
  _c104
  _c105
  _c106
  _c107
  _c108
  _c109
  _c11
  _c110
  _c111
  _c112
  _c113
  _c114
  _c115
  _c116
  _c117
  _c118
  _c119
  _c12
  _c120
  _c121
  _c122
  _c123
  _c124
  _c125
  _c126
  _c127
  _c128
  _c129
  _c13
  _c130
  _c131
  _c132
  _c133
  _c134
  _c135
  _c137
  _c138
  _c139
  _c14
  _c140
  _c141
  _c142
  _c143
  _c144
  _c145
  _c146
  _c147
  _c148
  _c149
  _c15
  _c150
  _c151
  _c152
  _c153
  _c154
  _c155
  _c156
  _c157
  _c158
  _c159
  _c16
  _c160
  _c161
  _c162
  _c163
  _c164
  _c165
  _c166
  _c167
  _c168
  _c169
  _c17
  _c170
  _c171
  _c172
  _c173
  _c174
  _c175
  _c177
  _c178
  _c179
  _c18
  _c181
  _c182
  _c183
  _c184
  _c185
  _c186
  _c187
  _c188
  _c19
  _c194
  _c200
  _c206
  _c21
  _c212
  _c214
  _c215
  _c216
  _c217
  _c218
  _c22
  _c224
  _c225
  _c226
  _c227
  _c228
  _c23
  _c24
  _c25
  _c26
  _c27
  _c28
  _c29
  _c30
  _c31
  _c32
  _c33
  _c34
  _c35
  _c38
  _c44
  _c50
  _c56
  _c6
  _c62
  _c63
  _c64
  _c65
  _c66
  _c67
  _c68
  _c69
  _c7
  _c70
  _c71
  _c72
  _c73
  _c74
  _c75
  _c76
  _c77
  _c78
  _c79
  _c8
  _c80
  _c81
  _c82
  _c83
  _c84
  _c85
  _c86
  _c87
  _c88
  _c89
  _c9
  _c90
  _c91
  _c92
  _c93
  _c94
  _c95
  _c96
  _c97
  _c98
  _c99 )
